(set-info :Origin "This instance was generated by: BanditFuzz-- an RL fuzzer for SMT solvers" )
(set-info :Author "Joe Scott, Fed Mora, Vijay Ganesh" )
(set-info :Contact "Joe Scott, joseph.scott@uwaterloo.ca")
(set-logic QF_BV)
(declare-const bool_0 Bool)
(declare-const bool_1 Bool)
(declare-const bool_2 Bool)
(declare-const bool_3 Bool)
(declare-const bool_4 Bool)
(declare-const bv_0 (_ BitVec 32))
(declare-const bv_1 (_ BitVec 32))
(declare-const bv_2 (_ BitVec 32))
(declare-const bv_3 (_ BitVec 32))
(declare-const bv_4 (_ BitVec 32))
(assert (bvugt (bvnand (bvurem #x673fe3aa  #x46fd3bc9 ) (bvashr bv_4 bv_2)) (bvnor (bvsmod bv_3 #xf2cc2fef ) (bvlshr bv_2 #x7a49810a ))))
(assert (xor (=> (bvsgt bv_0 bv_4) (and true bool_1)) (bvugt (bvxnor #x5ddbf4b4  #xe4f712f5 ) (bvsrem #xb21c0731  bv_1))))
(assert (bvult (bvsrem (bvand #xb2f73c10  #x70c7bf7e ) (bvadd bv_1 #xf48d34d3 )) (bvudiv (bvor #xdc421db4  bv_1) (bvurem bv_2 bv_3))))
(assert (bvsle (bvmul (bvnand bv_4 #x97867b9b ) (bvor bv_2 bv_0)) (bvor (bvsrem #x6059b229  #x1b7ff5a1 ) (bvor #x594e98fc  bv_4))))
(assert (bvugt (bvnand (bvor #x97601eba  bv_4) (bvlshr #x156f2e7d  bv_4)) (bvxor (bvsmod bv_2 bv_3) (bvxor bv_3 bv_3))))
(check-sat)
(exit)
